(set-info :smt-lib-version 2.8)
(set-logic QF_EIA)
(set-info :source |
Generated by: Florian Frohn
Generator: LoAT
Application: proving lower bounds on the worst-case runtime of transition systems
Target solver: SwInE
Time limit: 1.0
Benchmarks generated by the verification tool LoAT to evaluate the SMT solver
SwInE. We extracted all benchmarks with exponentiation that were generated by
LoAT when analyzing the examples from the category LIA-Lin (linear CHCs with
linear integer arithmetic) of the CHC competitions 2022 and 2023, and when
analyzing the examples from the categories "Termination of Integer Transition
Systems" and "Complexity of Integer Transition Systems" of the Termination and
Complexity Competition 2024. From the entire set, we selected those where
* SwInE v0.1.0 or SwInE-Z3 v0.1.2 failed or needed more than 1 second, or
* SwInE-Z3 v0.1.2 failed without phasing, a technique to prevent SwInE from
  computing with huge constants (described here
  https://arxiv.org/abs/2502.04761)
If several selected benchmarks only differed in lines not containing
exponentiation, we kept only one of them. The status of this benchmark is
unknown, even with the slightly different semantics of exponentiation used by
the versions of SwInE mentioned above.
|)
(set-info :license "https://creativecommons.org/licenses/by/4.0/")
(set-info :category "industrial")
(set-info :status unknown)

(declare-fun i1 () Int)
(declare-fun i3 () Int)
(declare-fun it1 () Int)
(declare-fun it2 () Int)
(declare-fun i2 () Int)
(declare-fun it3 () Int)
(declare-fun it4 () Int)
(declare-fun i4 () Int)
(declare-fun it5 () Int)
(declare-fun i5 () Int)
(declare-fun it33 () Int)
(declare-fun it34 () Int)
(declare-fun it35 () Int)
(declare-fun it36 () Int)
(declare-fun it37 () Int)
(declare-fun it46 () Int)
(declare-fun it47 () Int)
(declare-fun it48 () Int)
(declare-fun it49 () Int)
(declare-fun it50 () Int)
(declare-fun it16 () Int)
(assert (and (> i3 0) (= (+ i1 (- 1)) 0)))
(assert (= (+ it1 (- 2)) 0))
(assert (= (+ (* i2 (- 1)) it2 (- 1)) 0))
(assert (= (+ it3 (* i3 (- 1))) 0))
(assert (= (+ (* i4 (- 1)) it4) 0))
(assert (= (+ (* i5 (- 1)) it5) 0))
(assert (and (>= (+ it1 (- 2)) 0)
     (>= (+ it5 (- 1)) 0)
     (> 1 0)
     (>= (+ (* it1 (- 1)) 2) 0)))
(assert (= (+ (* it1 (- 1)) it33) 0))
(assert (= (+ it34 (* it5 (- 1)) (* it2 (- 1))) 0))
(assert (let ((a!1 (+ (+ 0 (+ (* it35 2) (* it3 (- 2))))
              (* (** it5 2) (+ 0 (- 1)))
              (+ 0 (* it5 (- 1))))))
  (= a!1 (+ 0 0))))
(assert (= (+ it36 (* it4 (- 1))) 0))
(assert (= it37 0))
(assert (let ((a!1 (< (+ (+ 0 it35) (* (** it36 2) (+ 0 (- 1)))) (+ 0 0))))
  (and a!1 (<= it37 0) (= (+ it33 (- 2)) 0))))
(assert (= (+ it46 (- 3)) 0))
(assert (= (+ (* it34 (- 1)) it47 (- 4)) 0))
(assert (let ((a!1 (* (** (+ it36 (* it37 (- 1))) 4) (+ 0 (- 1)))))
(let ((a!2 (+ (+ 0 (+ (* it35 (- 5)) it48)) a!1)))
  (= a!2 (+ 0 0)))))
(assert (= (+ (* it36 (- 2)) it49) 0))
(assert (= (+ (* it37 (- 1)) it50) 0))
(assert (let ((a!1 (* (** it49 2) (** (** 2 (+ it16 (- 1))) (+ 0 2)) (+ 0 132))))
(let ((a!2 (+ (* (** it50 4) (+ 0 33))
              (* (+ 0 it48) (** 5 (+ it16 (- 1))) (+ 0 (- 132)))
              a!1
              (* (** it49 4) (** 16 (+ it16 (- 1))) (+ 0 (- 12)))
              (* (** it49 2) (** 5 (+ it16 (- 1))) (** it50 2) (+ 0 (- 792)))
              (* (** it49 4) (** 5 (+ it16 (- 1))) (+ 0 12))
              (* (** 4 (+ it16 (- 1))) (** it49 2) (** it50 2) (+ 0 792))
              (* (+ 0 it49) (** 5 (+ it16 (- 1))) (** it50 3) (+ 0 176))
              (* (** 5 (+ it16 (- 1))) (** it50 4) (+ 0 (- 33)))
              (* (** it49 3)
                 (** 5 (+ it16 (- 1)))
                 (+ 0 it50)
                 (+ 0 (- 176)))
              (* (** 8 (+ it16 (- 1))) (** it49 3) (+ 0 it50) (+ 0 176))
              (* (+ 0 it49)
                 (** it50 3)
                 (** 2 (+ it16 (- 1)))
                 (+ 0 (- 176))))))
  (and (>= (+ (* it46 (- 1)) 3) 0)
       (> a!2 (+ 0 0))
       (>= (+ it46 (- 3)) 0)
       (>= (+ it16 (- 1)) 0)))))
(check-sat)
(exit)
